c nIsolatedPIs 0
c maxPI 32
p cnf 241 628
c gate 33 -15 -31 0
-15 -33 0
-31 -33 0
15 31 33 0
c gate 34 15 31 0
15 -34 0
31 -34 0
-15 -31 34 0
c gate 35 -33 -34 0
-33 -35 0
-34 -35 0
33 34 35 0
c gate 36 14 30 0
14 -36 0
30 -36 0
-14 -30 36 0
c gate 37 -14 -30 0
-14 -37 0
-30 -37 0
14 30 37 0
c gate 38 -36 -37 0
-36 -38 0
-37 -38 0
36 37 38 0
c gate 39 13 29 0
13 -39 0
29 -39 0
-13 -29 39 0
c gate 40 12 28 0
12 -40 0
28 -40 0
-12 -28 40 0
c gate 41 -39 -40 0
-39 -41 0
-40 -41 0
39 40 41 0
c gate 42 38 -41 0
38 -42 0
-41 -42 0
-38 41 42 0
c gate 43 -36 -42 0
-36 -43 0
-42 -43 0
36 42 43 0
c gate 44 35 -43 0
35 -44 0
-43 -44 0
-35 43 44 0
c gate 45 -35 43 0
-35 -45 0
43 -45 0
35 -43 45 0
c gate 46 -44 -45 0
-44 -46 0
-45 -46 0
44 45 46 0
c gate 47 -13 -29 0
-13 -47 0
-29 -47 0
13 29 47 0
c gate 48 -12 -28 0
-12 -48 0
-28 -48 0
12 28 48 0
c gate 49 -40 -48 0
-40 -49 0
-48 -49 0
40 48 49 0
c gate 50 -11 -27 0
-11 -50 0
-27 -50 0
11 27 50 0
c gate 51 11 27 0
11 -51 0
27 -51 0
-11 -27 51 0
c gate 52 -10 -26 0
-10 -52 0
-26 -52 0
10 26 52 0
c gate 53 8 24 0
8 -53 0
24 -53 0
-8 -24 53 0
c gate 54 -8 -24 0
-8 -54 0
-24 -54 0
8 24 54 0
c gate 55 -53 -54 0
-53 -55 0
-54 -55 0
53 54 55 0
c gate 56 -7 23 0
-7 -56 0
23 -56 0
7 -23 56 0
c gate 57 7 -23 0
7 -57 0
-23 -57 0
-7 23 57 0
c gate 58 -56 -57 0
-56 -58 0
-57 -58 0
56 57 58 0
c gate 59 -6 -22 0
-6 -59 0
-22 -59 0
6 22 59 0
c gate 60 4 20 0
4 -60 0
20 -60 0
-4 -20 60 0
c gate 61 2 18 0
2 -61 0
18 -61 0
-2 -18 61 0
c gate 62 1 17 0
1 -62 0
17 -62 0
-1 -17 62 0
c gate 63 3 19 0
3 -63 0
19 -63 0
-3 -19 63 0
c gate 64 -62 -63 0
-62 -64 0
-63 -64 0
62 63 64 0
c gate 65 -61 64 0
-61 -65 0
64 -65 0
61 -64 65 0
c gate 66 4 -20 0
4 -66 0
-20 -66 0
-4 20 66 0
c gate 67 -4 20 0
-4 -67 0
20 -67 0
4 -20 67 0
c gate 68 -66 -67 0
-66 -68 0
-67 -68 0
66 67 68 0
c gate 69 -3 -19 0
-3 -69 0
-19 -69 0
3 19 69 0
c gate 70 -68 -69 0
-68 -70 0
-69 -70 0
68 69 70 0
c gate 71 -65 70 0
-65 -71 0
70 -71 0
65 -70 71 0
c gate 72 -60 -71 0
-60 -72 0
-71 -72 0
60 71 72 0
c gate 73 -5 21 0
-5 -73 0
21 -73 0
5 -21 73 0
c gate 74 5 -21 0
5 -74 0
-21 -74 0
-5 21 74 0
c gate 75 -73 -74 0
-73 -75 0
-74 -75 0
73 74 75 0
c gate 76 -72 -75 0
-72 -76 0
-75 -76 0
72 75 76 0
c gate 77 -2 18 0
-2 -77 0
18 -77 0
2 -18 77 0
c gate 78 62 -77 0
62 -78 0
-77 -78 0
-62 77 78 0
c gate 79 -2 78 0
-2 -79 0
78 -79 0
2 -78 79 0
c gate 80 -63 79 0
-63 -80 0
79 -80 0
63 -79 80 0
c gate 81 71 80 0
71 -81 0
80 -81 0
-71 -80 81 0
c gate 82 76 -81 0
76 -82 0
-81 -82 0
-76 81 82 0
c gate 83 6 22 0
6 -83 0
22 -83 0
-6 -22 83 0
c gate 84 -59 -83 0
-59 -84 0
-83 -84 0
59 83 84 0
c gate 85 5 21 0
5 -85 0
21 -85 0
-5 -21 85 0
c gate 86 84 -85 0
84 -86 0
-85 -86 0
-84 85 86 0
c gate 87 -82 86 0
-82 -87 0
86 -87 0
82 -86 87 0
c gate 88 -59 -87 0
-59 -88 0
-87 -88 0
59 87 88 0
c gate 89 -58 -88 0
-58 -89 0
-88 -89 0
58 88 89 0
c gate 90 55 89 0
55 -90 0
89 -90 0
-55 -89 90 0
c gate 91 -7 -23 0
-7 -91 0
-23 -91 0
7 23 91 0
c gate 92 -53 91 0
-53 -92 0
91 -92 0
53 -91 92 0
c gate 93 -9 -25 0
-9 -93 0
-25 -93 0
9 25 93 0
c gate 94 -54 -93 0
-54 -94 0
-93 -94 0
54 93 94 0
c gate 95 -92 94 0
-92 -95 0
94 -95 0
92 -94 95 0
c gate 96 -90 95 0
-90 -96 0
95 -96 0
90 -95 96 0
c gate 97 10 26 0
10 -97 0
26 -97 0
-10 -26 97 0
c gate 98 9 25 0
9 -98 0
25 -98 0
-9 -25 98 0
c gate 99 -97 -98 0
-97 -99 0
-98 -99 0
97 98 99 0
c gate 100 -96 99 0
-96 -100 0
99 -100 0
96 -99 100 0
c gate 101 -52 -100 0
-52 -101 0
-100 -101 0
52 100 101 0
c gate 102 -51 -101 0
-51 -102 0
-101 -102 0
51 101 102 0
c gate 103 -50 -102 0
-50 -103 0
-102 -103 0
50 102 103 0
c gate 104 49 103 0
49 -104 0
103 -104 0
-49 -103 104 0
c gate 105 41 -104 0
41 -105 0
-104 -105 0
-41 104 105 0
c gate 106 -47 -105 0
-47 -106 0
-105 -106 0
47 105 106 0
c gate 107 38 -106 0
38 -107 0
-106 -107 0
-38 106 107 0
c gate 108 -37 -107 0
-37 -108 0
-107 -108 0
37 107 108 0
c gate 109 35 -108 0
35 -109 0
-108 -109 0
-35 108 109 0
c gate 110 -35 108 0
-35 -110 0
108 -110 0
35 -108 110 0
c gate 111 -109 -110 0
-109 -111 0
-110 -111 0
109 110 111 0
c gate 112 -46 -111 0
-46 -112 0
-111 -112 0
46 111 112 0
c gate 113 46 111 0
46 -113 0
111 -113 0
-46 -111 113 0
c gate 114 -112 -113 0
-112 -114 0
-113 -114 0
112 113 114 0
c gate 115 -50 -51 0
-50 -115 0
-51 -115 0
50 51 115 0
c gate 116 -10 26 0
-10 -116 0
26 -116 0
10 -26 116 0
c gate 117 -9 25 0
-9 -117 0
25 -117 0
9 -25 117 0
c gate 118 6 -22 0
6 -118 0
-22 -118 0
-6 22 118 0
c gate 119 58 -118 0
58 -119 0
-118 -119 0
-58 118 119 0
c gate 120 -1 17 0
-1 -120 0
17 -120 0
1 -17 120 0
c gate 121 -77 -120 0
-77 -121 0
-120 -121 0
77 120 121 0
c gate 122 2 -18 0
2 -122 0
-18 -122 0
-2 18 122 0
c gate 123 3 -19 0
3 -123 0
-19 -123 0
-3 19 123 0
c gate 124 -122 -123 0
-122 -124 0
-123 -124 0
122 123 124 0
c gate 125 -121 124 0
-121 -125 0
124 -125 0
121 -124 125 0
c gate 126 -3 19 0
-3 -126 0
19 -126 0
3 -19 126 0
c gate 127 -67 -126 0
-67 -127 0
-126 -127 0
67 126 127 0
c gate 128 -125 127 0
-125 -128 0
127 -128 0
125 -127 128 0
c gate 129 -66 -74 0
-66 -129 0
-74 -129 0
66 74 129 0
c gate 130 -128 129 0
-128 -130 0
129 -130 0
128 -129 130 0
c gate 131 -73 -84 0
-73 -131 0
-84 -131 0
73 84 131 0
c gate 132 -130 131 0
-130 -132 0
131 -132 0
130 -131 132 0
c gate 133 119 -132 0
119 -133 0
-132 -133 0
-119 132 133 0
c gate 134 -56 -133 0
-56 -134 0
-133 -134 0
56 133 134 0
c gate 135 -55 134 0
-55 -135 0
134 -135 0
55 -134 135 0
c gate 136 8 -24 0
8 -136 0
-24 -136 0
-8 24 136 0
c gate 137 9 -25 0
9 -137 0
-25 -137 0
-9 25 137 0
c gate 138 -136 -137 0
-136 -138 0
-137 -138 0
136 137 138 0
c gate 139 -135 138 0
-135 -139 0
138 -139 0
135 -138 139 0
c gate 140 -117 -139 0
-117 -140 0
-139 -140 0
117 139 140 0
c gate 141 10 -26 0
10 -141 0
-26 -141 0
-10 26 141 0
c gate 142 -116 -141 0
-116 -142 0
-141 -142 0
116 141 142 0
c gate 143 -140 142 0
-140 -143 0
142 -143 0
140 -142 143 0
c gate 144 -116 -143 0
-116 -144 0
-143 -144 0
116 143 144 0
c gate 145 -115 -144 0
-115 -145 0
-144 -145 0
115 144 145 0
c gate 146 16 32 0
16 -146 0
32 -146 0
-16 -32 146 0
c gate 147 -16 -32 0
-16 -147 0
-32 -147 0
16 32 147 0
c gate 148 -146 -147 0
-146 -148 0
-147 -148 0
146 147 148 0
c gate 149 -38 -148 0
-38 -149 0
-148 -149 0
38 148 149 0
c gate 150 -39 -47 0
-39 -150 0
-47 -150 0
39 47 150 0
c gate 151 -49 -150 0
-49 -151 0
-150 -151 0
49 150 151 0
c gate 152 -35 151 0
-35 -152 0
151 -152 0
35 -151 152 0
c gate 153 149 152 0
149 -153 0
152 -153 0
-149 -152 153 0
c gate 154 145 153 0
145 -154 0
153 -154 0
-145 -153 154 0
c gate 155 115 144 0
115 -155 0
144 -155 0
-115 -144 155 0
c gate 156 -145 -155 0
-145 -156 0
-155 -156 0
145 155 156 0
c gate 157 -138 142 0
-138 -157 0
142 -157 0
138 -142 157 0
c gate 158 -141 -157 0
-141 -158 0
-157 -158 0
141 157 158 0
c gate 159 115 -158 0
115 -159 0
-158 -159 0
-115 158 159 0
c gate 160 -156 -159 0
-156 -160 0
-159 -160 0
156 159 160 0
c gate 161 138 -142 0
138 -161 0
-142 -161 0
-138 142 161 0
c gate 162 -157 -161 0
-157 -162 0
-161 -162 0
157 161 162 0
c gate 163 140 -142 0
140 -163 0
-142 -163 0
-140 142 163 0
c gate 164 -143 -163 0
-143 -164 0
-163 -164 0
143 163 164 0
c gate 165 -162 -164 0
-162 -165 0
-164 -165 0
162 164 165 0
c gate 166 162 164 0
162 -166 0
164 -166 0
-162 -164 166 0
c gate 167 -38 41 0
-38 -167 0
41 -167 0
38 -41 167 0
c gate 168 -42 -167 0
-42 -168 0
-167 -168 0
42 167 168 0
c gate 169 -38 106 0
-38 -169 0
106 -169 0
38 -106 169 0
c gate 170 -107 -169 0
-107 -170 0
-169 -170 0
107 169 170 0
c gate 171 168 170 0
168 -171 0
170 -171 0
-168 -170 171 0
c gate 172 -168 -170 0
-168 -172 0
-170 -172 0
168 170 172 0
c gate 173 -171 -172 0
-171 -173 0
-172 -173 0
171 172 173 0
c gate 174 -104 173 0
-104 -174 0
173 -174 0
104 -173 174 0
c gate 175 -87 -89 0
-87 -175 0
-89 -175 0
87 89 175 0
c gate 176 61 62 0
61 -176 0
62 -176 0
-61 -62 176 0
c gate 177 175 176 0
175 -177 0
176 -177 0
-175 -176 177 0
c gate 178 -90 -177 0
-90 -178 0
-177 -178 0
90 177 178 0
c gate 179 174 178 0
174 -179 0
178 -179 0
-174 -178 179 0
c gate 180 -95 99 0
-95 -180 0
99 -180 0
95 -99 180 0
c gate 181 -50 -52 0
-50 -181 0
-52 -181 0
50 52 181 0
c gate 182 49 181 0
49 -182 0
181 -182 0
-49 -181 182 0
c gate 183 -180 182 0
-180 -183 0
182 -183 0
180 -182 183 0
c gate 184 -103 183 0
-103 -184 0
183 -184 0
103 -183 184 0
c gate 185 90 -184 0
90 -185 0
-184 -185 0
-90 184 185 0
c gate 186 174 -185 0
174 -186 0
-185 -186 0
-174 185 186 0
c gate 187 -33 -109 0
-33 -187 0
-109 -187 0
33 109 187 0
c gate 188 148 -187 0
148 -188 0
-187 -188 0
-148 187 188 0
c gate 189 -148 187 0
-148 -189 0
187 -189 0
148 -187 189 0
c gate 190 -188 -189 0
-188 -190 0
-189 -190 0
188 189 190 0
c gate 191 -34 -44 0
-34 -191 0
-44 -191 0
34 44 191 0
c gate 192 148 191 0
148 -192 0
191 -192 0
-148 -191 192 0
c gate 193 -148 -191 0
-148 -193 0
-191 -193 0
148 191 193 0
c gate 194 -192 -193 0
-192 -194 0
-193 -194 0
192 193 194 0
c gate 195 -190 194 0
-190 -195 0
194 -195 0
190 -194 195 0
c gate 196 190 -194 0
190 -196 0
-194 -196 0
-190 194 196 0
c gate 197 104 -150 0
104 -197 0
-150 -197 0
-104 150 197 0
c gate 198 -172 -197 0
-172 -198 0
-197 -198 0
172 197 198 0
c gate 199 -113 -198 0
-113 -199 0
-198 -199 0
113 198 199 0
c gate 200 -112 -199 0
-112 -200 0
-199 -200 0
112 199 200 0
c gate 201 -196 -200 0
-196 -201 0
-200 -201 0
196 200 201 0
c gate 202 -195 -201 0
-195 -202 0
-201 -202 0
195 201 202 0
c gate 203 -186 202 0
-186 -203 0
202 -203 0
186 -202 203 0
c gate 204 -179 -203 0
-179 -204 0
-203 -204 0
179 203 204 0
c gate 205 187 192 0
187 -205 0
192 -205 0
-187 -192 205 0
c gate 206 -132 -205 0
-132 -206 0
-205 -206 0
132 205 206 0
c gate 207 204 206 0
204 -207 0
206 -207 0
-204 -206 207 0
c gate 208 -58 132 0
-58 -208 0
132 -208 0
58 -132 208 0
c gate 209 -132 -146 0
-132 -209 0
-146 -209 0
132 146 209 0
c gate 210 -192 209 0
-192 -210 0
209 -210 0
192 -209 210 0
c gate 211 188 210 0
188 -211 0
210 -211 0
-188 -210 211 0
c gate 212 -208 -211 0
-208 -212 0
-211 -212 0
208 211 212 0
c gate 213 -207 212 0
-207 -213 0
212 -213 0
207 -212 213 0
c gate 214 -135 -213 0
-135 -214 0
-213 -214 0
135 213 214 0
c gate 215 55 119 0
55 -215 0
119 -215 0
-55 -119 215 0
c gate 216 134 215 0
134 -216 0
215 -216 0
-134 -215 216 0
c gate 217 -135 -216 0
-135 -217 0
-216 -217 0
135 216 217 0
c gate 218 -117 -137 0
-117 -218 0
-137 -218 0
117 137 218 0
c gate 219 -216 218 0
-216 -219 0
218 -219 0
216 -218 219 0
c gate 220 -217 -219 0
-217 -220 0
-219 -220 0
217 219 220 0
c gate 221 -214 -220 0
-214 -221 0
-220 -221 0
214 220 221 0
c gate 222 -166 -221 0
-166 -222 0
-221 -222 0
166 221 222 0
c gate 223 -165 -222 0
-165 -223 0
-222 -223 0
165 222 223 0
c gate 224 -160 223 0
-160 -224 0
223 -224 0
160 -223 224 0
c gate 225 -144 159 0
-144 -225 0
159 -225 0
144 -159 225 0
c gate 226 -145 -225 0
-145 -226 0
-225 -226 0
145 225 226 0
c gate 227 -224 226 0
-224 -227 0
226 -227 0
224 -226 227 0
c gate 228 -154 -227 0
-154 -228 0
-227 -228 0
154 227 228 0
c gate 229 -178 -185 0
-178 -229 0
-185 -229 0
178 185 229 0
c gate 230 174 229 0
174 -230 0
229 -230 0
-174 -229 230 0
c gate 231 198 -230 0
198 -231 0
-230 -231 0
-198 230 231 0
c gate 232 228 -231 0
228 -232 0
-231 -232 0
-228 231 232 0
c gate 233 -79 175 0
-79 -233 0
175 -233 0
79 -175 233 0
c gate 234 -184 -233 0
-184 -234 0
-233 -234 0
184 233 234 0
c gate 235 174 -234 0
174 -235 0
-234 -235 0
-174 234 235 0
c gate 236 198 -235 0
198 -236 0
-235 -236 0
-198 235 236 0
c gate 237 -228 236 0
-228 -237 0
236 -237 0
228 -236 237 0
c gate 238 -232 -237 0
-232 -238 0
-237 -238 0
232 237 238 0
c gate 239 114 238 0
114 -239 0
238 -239 0
-114 -238 239 0
c gate 240 -114 -238 0
-114 -240 0
-238 -240 0
114 238 240 0
c gate 241 -239 -240 0
-239 -241 0
-240 -241 0
239 240 241 0
c PO
241 0
